NAME: R206
COMMENT: converted from Solomon txt
TYPE: VRPTW
VEHICLES: 25
DIMENSION: 101
CAPACITY: 1000
EDGE_WEIGHT_TYPE: EUC_2D
NODE_COORD_SECTION
1	35.0	35.0
2	41.0	49.0
3	35.0	17.0
4	55.0	45.0
5	55.0	20.0
6	15.0	30.0
7	25.0	30.0
8	20.0	50.0
9	10.0	43.0
10	55.0	60.0
11	30.0	60.0
12	20.0	65.0
13	50.0	35.0
14	30.0	25.0
15	15.0	10.0
16	30.0	5.0
17	10.0	20.0
18	5.0	30.0
19	20.0	40.0
20	15.0	60.0
21	45.0	65.0
22	45.0	20.0
23	45.0	10.0
24	55.0	5.0
25	65.0	35.0
26	65.0	20.0
27	45.0	30.0
28	35.0	40.0
29	41.0	37.0
30	64.0	42.0
31	40.0	60.0
32	31.0	52.0
33	35.0	69.0
34	53.0	52.0
35	65.0	55.0
36	63.0	65.0
37	2.0	60.0
38	20.0	20.0
39	5.0	5.0
40	60.0	12.0
41	40.0	25.0
42	42.0	7.0
43	24.0	12.0
44	23.0	3.0
45	11.0	14.0
46	6.0	38.0
47	2.0	48.0
48	8.0	56.0
49	13.0	52.0
50	6.0	68.0
51	47.0	47.0
52	49.0	58.0
53	27.0	43.0
54	37.0	31.0
55	57.0	29.0
56	63.0	23.0
57	53.0	12.0
58	32.0	12.0
59	36.0	26.0
60	21.0	24.0
61	17.0	34.0
62	12.0	24.0
63	24.0	58.0
64	27.0	69.0
65	15.0	77.0
66	62.0	77.0
67	49.0	73.0
68	67.0	5.0
69	56.0	39.0
70	37.0	47.0
71	37.0	56.0
72	57.0	68.0
73	47.0	16.0
74	44.0	17.0
75	46.0	13.0
76	49.0	11.0
77	49.0	42.0
78	53.0	43.0
79	61.0	52.0
80	57.0	48.0
81	56.0	37.0
82	55.0	54.0
83	15.0	47.0
84	14.0	37.0
85	11.0	31.0
86	16.0	22.0
87	4.0	18.0
88	28.0	18.0
89	26.0	52.0
90	26.0	35.0
91	31.0	67.0
92	15.0	19.0
93	22.0	22.0
94	18.0	24.0
95	26.0	27.0
96	25.0	24.0
97	22.0	27.0
98	25.0	21.0
99	19.0	21.0
100	20.0	26.0
101	18.0	18.0
DEMAND_SECTION
1	0
2	10
3	7
4	13
5	19
6	26
7	3
8	5
9	9
10	16
11	16
12	12
13	19
14	23
15	20
16	8
17	19
18	2
19	12
20	17
21	9
22	11
23	18
24	29
25	3
26	6
27	17
28	16
29	16
30	9
31	21
32	27
33	23
34	11
35	14
36	8
37	5
38	8
39	16
40	31
41	9
42	5
43	5
44	7
45	18
46	16
47	1
48	27
49	36
50	30
51	13
52	10
53	9
54	14
55	18
56	2
57	6
58	7
59	18
60	28
61	3
62	13
63	19
64	10
65	9
66	20
67	25
68	25
69	36
70	6
71	5
72	15
73	25
74	9
75	8
76	18
77	13
78	14
79	3
80	23
81	6
82	26
83	16
84	11
85	7
86	41
87	35
88	26
89	9
90	15
91	3
92	1
93	2
94	22
95	27
96	20
97	11
98	12
99	10
100	9
101	17
DEPOT_SECTION
1
TIME_WINDOW_SECTION
1	0.0	1000.0
2	0.0	974.0
3	0.0	972.0
4	0.0	967.0
5	620.0	860.0
6	0.0	969.0
7	345.0	585.0
8	0.0	968.0
9	323.0	563.0
10	329.0	569.0
11	485.0	725.0
12	146.0	386.0
13	0.0	975.0
14	639.0	879.0
15	32.0	272.0
16	118.0	358.0
17	203.0	443.0
18	682.0	922.0
19	286.0	526.0
20	204.0	444.0
21	504.0	744.0
22	0.0	971.0
23	332.0	572.0
24	146.0	386.0
25	656.0	896.0
26	716.0	956.0
27	0.0	978.0
28	60.0	300.0
29	65.0	305.0
30	132.0	372.0
31	187.0	427.0
32	0.0	972.0
33	599.0	839.0
34	24.0	264.0
35	0.0	953.0
36	630.0	870.0
37	41.0	281.0
38	0.0	968.0
39	234.0	474.0
40	33.0	273.0
41	279.0	519.0
42	334.0	574.0
43	25.0	265.0
44	543.0	783.0
45	167.0	407.0
46	29.0	269.0
47	452.0	692.0
48	48.0	288.0
49	0.0	962.0
50	401.0	641.0
51	0.0	973.0
52	281.0	521.0
53	0.0	978.0
54	332.0	572.0
55	568.0	808.0
56	560.0	800.0
57	519.0	759.0
58	356.0	596.0
59	740.0	980.0
60	0.0	972.0
61	672.0	912.0
62	214.0	454.0
63	113.0	353.0
64	34.0	274.0
65	154.0	394.0
66	49.0	289.0
67	523.0	763.0
68	228.0	468.0
69	575.0	815.0
70	108.0	348.0
71	728.0	968.0
72	198.0	438.0
73	0.0	967.0
74	234.0	474.0
75	622.0	862.0
76	0.0	962.0
77	212.0	452.0
78	730.0	970.0
79	322.0	562.0
80	307.0	547.0
81	728.0	968.0
82	314.0	554.0
83	0.0	966.0
84	0.0	968.0
85	354.0	594.0
86	0.0	966.0
87	307.0	547.0
88	314.0	554.0
89	214.0	454.0
90	718.0	958.0
91	320.0	560.0
92	0.0	964.0
93	18.0	258.0
94	729.0	969.0
95	0.0	977.0
96	0.0	975.0
97	0.0	974.0
98	523.0	763.0
99	0.0	968.0
100	263.0	503.0
101	725.0	965.0
SERVICE_TIME_SECTION
1	0.0
2	10.0
3	10.0
4	10.0
5	10.0
6	10.0
7	10.0
8	10.0
9	10.0
10	10.0
11	10.0
12	10.0
13	10.0
14	10.0
15	10.0
16	10.0
17	10.0
18	10.0
19	10.0
20	10.0
21	10.0
22	10.0
23	10.0
24	10.0
25	10.0
26	10.0
27	10.0
28	10.0
29	10.0
30	10.0
31	10.0
32	10.0
33	10.0
34	10.0
35	10.0
36	10.0
37	10.0
38	10.0
39	10.0
40	10.0
41	10.0
42	10.0
43	10.0
44	10.0
45	10.0
46	10.0
47	10.0
48	10.0
49	10.0
50	10.0
51	10.0
52	10.0
53	10.0
54	10.0
55	10.0
56	10.0
57	10.0
58	10.0
59	10.0
60	10.0
61	10.0
62	10.0
63	10.0
64	10.0
65	10.0
66	10.0
67	10.0
68	10.0
69	10.0
70	10.0
71	10.0
72	10.0
73	10.0
74	10.0
75	10.0
76	10.0
77	10.0
78	10.0
79	10.0
80	10.0
81	10.0
82	10.0
83	10.0
84	10.0
85	10.0
86	10.0
87	10.0
88	10.0
89	10.0
90	10.0
91	10.0
92	10.0
93	10.0
94	10.0
95	10.0
96	10.0
97	10.0
98	10.0
99	10.0
100	10.0
101	10.0
EOF
